certificates/rado_a11_c30_N29.drat
1 3 0
-26 -29 0
d -26 -3 -29 0
3 -27 -29 0
-3 -28 26 0
3 -29 0
d 3 -27 -29 0
-1 -3 0
-29 0
-3 0
6 0
26 0
1 0
-20 0
-5 0
-7 0
-25 0
17 0
23 0
28 0
4 0
8 0
2 0
10 0
22 0
0
